% seed = 3043997

mint = 58;
% maxt = 216;

nActs = 42;
dur = [0,5,1,6,5,10,10,9,4,2,9,8,6,3,8,10,8,7,3,4,8,7,1,3,3,7,2,1,8,4,3,3,9,5,3,3,10,6,3,1,8,0];

nSkills = 4;
sreq = [| 0,0,0,0,
	| 5,1,3,3,
	| 0,3,2,7,
	| 5,0,3,1,
	| 6,4,5,2,
	| 7,0,0,7,
	| 4,0,0,5,
	| 6,0,4,0,
	| 2,4,0,0,
	| 5,7,2,5,
	| 0,0,5,4,
	| 0,0,5,4,
	| 0,6,7,0,
	| 0,6,5,3,
	| 7,0,5,0,
	| 4,2,4,3,
	| 2,4,4,3,
	| 4,5,3,6,
	| 0,4,2,0,
	| 3,0,3,3,
	| 0,7,0,6,
	| 4,4,5,6,
	| 4,0,2,5,
	| 7,3,2,3,
	| 4,7,3,0,
	| 6,0,0,4,
	| 6,2,3,4,
	| 0,4,0,6,
	| 7,7,0,0,
	| 3,0,6,2,
	| 2,1,1,2,
	| 7,0,2,7,
	| 0,3,4,4,
	| 0,0,6,7,
	| 3,0,4,0,
	| 3,0,4,0,
	| 4,2,4,2,
	| 7,0,4,5,
	| 0,6,4,6,
	| 2,2,5,2,
	| 0,3,4,2,
	| 0,0,0,0, |];

nResources = 30;
mastery = [| true,true,false,true,
	| true,false,true,true,
	| true,true,false,true,
	| false,false,true,true,
	| true,true,false,true,
	| false,true,false,true,
	| false,true,true,true,
	| true,false,true,true,
	| false,true,true,false,
	| true,true,true,false,
	| true,true,false,true,
	| false,false,true,false,
	| true,false,false,false,
	| true,false,true,true,
	| true,true,false,true,
	| false,true,false,false,
	| true,false,false,true,
	| true,false,true,false,
	| false,true,true,true,
	| false,false,true,false,
	| true,true,true,false,
	| false,true,false,true,
	| true,true,false,false,
	| false,true,false,false,
	| true,true,false,false,
	| true,false,false,false,
	| true,true,false,false,
	| true,true,true,false,
	| false,true,false,false,
	| false,false,true,true, |];

nPrecs = 61;
pred = [1,1,1,2,2,2,3,3,3,4,4,5,5,5,6,7,7,8,9,10,11,12,13,14,14,14,15,15,16,16,16,17,18,19,19,20,20,21,21,22,23,24,24,25,26,27,28,29,29,30,31,32,33,34,35,36,37,38,39,40,41];
succ = [2,3,4,20,12,31,5,7,16,10,8,34,6,24,32,9,23,11,13,14,13,25,21,28,15,32,18,22,17,19,27,29,23,38,39,33,26,37,29,38,33,28,30,40,34,28,39,36,30,41,37,35,38,39,37,41,40,40,42,42,42];

nUnrels = 564;
unpred = [2,2,2,2,2,2,2,2,2,2,2,2,2,2,2,2,2,2,2,2,2,2,2,2,2,2,2,2,3,3,3,3,3,3,3,3,3,3,3,3,3,4,4,4,4,4,4,4,4,4,4,4,4,4,4,4,5,5,5,5,5,5,5,5,5,5,5,5,5,5,5,5,5,5,5,5,5,5,5,5,5,6,6,6,6,6,6,6,6,6,6,6,6,6,6,6,6,6,6,6,6,6,6,6,6,6,6,6,6,6,6,6,7,7,7,7,7,7,7,7,7,7,7,7,7,7,7,7,7,7,7,7,7,7,8,8,8,8,8,8,8,8,8,8,8,8,8,8,8,8,8,8,8,8,8,8,8,8,9,9,9,9,9,9,9,9,9,9,9,9,9,9,9,9,9,9,9,9,9,9,9,9,10,10,10,10,10,10,10,10,10,10,10,10,10,10,10,10,10,10,11,11,11,11,11,11,11,11,11,11,11,11,11,11,11,11,11,11,11,11,11,11,12,12,12,12,12,12,12,12,12,12,12,12,12,12,12,12,12,12,12,12,12,12,12,12,12,12,12,13,13,13,13,13,13,13,13,13,13,13,13,13,13,13,13,13,13,13,13,13,14,14,14,14,14,14,14,14,14,14,14,14,14,14,14,15,15,15,15,15,15,15,15,15,15,15,15,15,15,15,15,15,15,15,15,16,16,16,16,16,16,16,16,16,16,16,16,16,16,17,17,17,17,17,17,17,17,17,17,17,17,17,17,17,17,17,17,17,17,18,18,18,18,18,18,18,18,18,18,18,18,18,18,18,18,18,18,18,19,19,19,19,19,19,19,19,19,19,19,19,19,19,19,19,19,19,19,20,20,20,20,20,20,20,20,20,20,20,20,20,20,20,21,21,21,21,21,21,21,21,21,21,21,21,21,21,22,22,22,22,22,22,22,22,22,22,22,22,22,22,22,22,22,23,23,23,23,23,23,23,23,23,23,23,23,23,23,23,24,24,24,24,24,24,24,24,24,24,24,24,24,25,25,25,25,25,25,25,25,25,25,25,25,25,25,25,26,26,26,26,26,26,26,26,26,26,26,26,26,27,27,27,27,27,27,27,27,27,27,27,27,28,28,28,28,28,28,28,28,28,28,28,28,29,29,29,29,29,29,29,29,29,30,30,30,30,30,30,30,30,30,30,31,31,31,31,31,31,31,31,32,32,32,32,32,32,33,33,33,33,33,33,34,34,34,34,34,34,35,35,35,35,36,36,36,36,37,37,37,38,38,39,39,40];
unsucc = [3,4,5,6,7,8,9,10,11,13,14,15,16,17,18,19,21,22,23,24,27,28,29,30,32,35,36,41,4,8,10,11,12,14,15,18,20,22,25,26,31,5,6,7,9,12,16,17,19,20,24,25,26,27,31,34,7,8,9,10,11,12,13,14,15,16,17,18,19,20,21,22,23,25,26,27,29,31,33,36,38,7,8,9,10,11,12,13,14,15,16,17,18,19,20,21,22,23,24,25,26,27,28,29,30,31,33,34,36,38,39,41,8,10,11,12,14,15,16,17,18,19,20,22,24,25,26,27,28,31,32,34,35,39,9,10,12,14,15,16,17,18,19,20,22,23,24,25,26,27,28,31,32,33,34,35,38,39,10,11,12,14,15,16,17,18,19,20,22,23,24,25,26,27,28,31,32,33,34,35,38,39,11,12,13,16,17,19,20,21,24,25,26,27,29,30,31,34,36,41,12,14,15,16,17,18,19,20,22,23,24,25,26,27,28,31,32,33,34,35,38,39,13,14,15,16,17,18,19,20,21,22,23,24,26,27,28,29,30,31,32,33,34,35,36,37,38,39,41,14,15,16,17,18,19,20,22,23,24,25,26,27,28,31,32,33,34,35,38,39,16,17,19,20,21,24,25,26,27,29,30,31,34,36,41,16,17,19,20,21,24,25,26,27,28,29,30,31,32,34,35,36,37,39,41,18,20,21,22,23,24,25,26,31,32,33,34,35,37,18,19,20,21,22,23,24,25,26,27,28,31,32,33,34,35,37,38,39,40,19,20,21,22,24,25,26,27,28,29,30,31,32,34,35,36,37,39,41,20,21,22,23,24,25,26,27,28,29,30,31,32,33,34,35,36,37,41,21,22,23,24,25,27,28,29,30,31,32,35,36,37,41,22,23,24,25,26,27,28,31,32,33,34,35,38,39,23,24,25,26,27,28,29,30,31,32,33,34,35,36,37,39,41,24,25,26,27,28,29,30,31,32,34,35,36,37,39,41,25,26,27,29,31,32,33,34,35,36,37,38,40,26,27,28,29,30,31,32,33,34,35,36,37,38,39,41,27,28,29,30,31,32,33,35,36,37,38,40,41,29,30,31,32,33,34,35,36,37,38,40,41,29,30,31,32,33,34,35,36,37,38,40,41,31,32,33,34,35,37,38,39,40,31,32,33,34,35,36,37,38,39,40,32,33,34,35,36,38,39,41,33,34,36,38,39,41,34,35,36,37,39,41,35,36,37,38,40,41,36,38,39,41,37,38,39,40,38,39,41,39,41,40,41,41];

USEFUL_RES = [{},
	{1,2,3,4,5,6,7,8,9,10,11,12,13,14,15,16,17,18,19,20,21,22,23,24,25,26,27,28,29,30},
	{1,2,3,4,5,6,7,8,9,10,11,12,14,15,16,17,18,19,20,21,22,23,24,25,27,28,29,30},
	{1,2,3,4,5,6,7,8,9,10,11,12,13,14,15,17,18,19,20,21,22,23,25,26,27,28,30},
	{1,2,3,4,5,6,7,8,9,10,11,12,13,14,15,16,17,18,19,20,21,22,23,24,25,26,27,28,29,30},
	{1,2,3,4,5,6,7,8,10,11,13,14,15,17,18,19,21,22,23,25,26,27,28,30},
	{1,2,3,4,5,6,7,8,10,11,13,14,15,17,18,19,21,22,23,25,26,27,28,30},
	{1,2,3,4,5,7,8,9,10,11,12,13,14,15,17,18,19,20,21,23,25,26,27,28,30},
	{1,2,3,5,6,7,8,9,10,11,13,14,15,16,17,18,19,21,22,23,24,25,26,27,28,29},
	{1,2,3,4,5,6,7,8,9,10,11,12,13,14,15,16,17,18,19,20,21,22,23,24,25,26,27,28,29,30},
	{1,2,3,4,5,6,7,8,9,10,11,12,14,15,17,18,19,20,21,22,28,30},
	{1,2,3,4,5,6,7,8,9,10,11,12,14,15,17,18,19,20,21,22,28,30},
	{1,2,3,4,5,6,7,8,9,10,11,12,14,15,16,18,19,20,21,22,23,24,25,27,28,29,30},
	{1,2,3,4,5,6,7,8,9,10,11,12,14,15,16,17,18,19,20,21,22,23,24,25,27,28,29,30},
	{1,2,3,4,5,7,8,9,10,11,12,13,14,15,17,18,19,20,21,23,25,26,27,28,30},
	{1,2,3,4,5,6,7,8,9,10,11,12,13,14,15,16,17,18,19,20,21,22,23,24,25,26,27,28,29,30},
	{1,2,3,4,5,6,7,8,9,10,11,12,13,14,15,16,17,18,19,20,21,22,23,24,25,26,27,28,29,30},
	{1,2,3,4,5,6,7,8,9,10,11,12,13,14,15,16,17,18,19,20,21,22,23,24,25,26,27,28,29,30},
	{1,2,3,4,5,6,7,8,9,10,11,12,14,15,16,18,19,20,21,22,23,24,25,27,28,29,30},
	{1,2,3,4,5,6,7,8,9,10,11,12,13,14,15,17,18,19,20,21,22,23,25,26,27,28,30},
	{1,2,3,4,5,6,7,8,9,10,11,14,15,16,17,19,21,22,23,24,25,27,28,29,30},
	{1,2,3,4,5,6,7,8,9,10,11,12,13,14,15,16,17,18,19,20,21,22,23,24,25,26,27,28,29,30},
	{1,2,3,4,5,6,7,8,9,10,11,12,13,14,15,17,18,19,20,21,22,23,25,26,27,28,30},
	{1,2,3,4,5,6,7,8,9,10,11,12,13,14,15,16,17,18,19,20,21,22,23,24,25,26,27,28,29,30},
	{1,2,3,4,5,6,7,8,9,10,11,12,13,14,15,16,17,18,19,20,21,22,23,24,25,26,27,28,29,30},
	{1,2,3,4,5,6,7,8,10,11,13,14,15,17,18,19,21,22,23,25,26,27,28,30},
	{1,2,3,4,5,6,7,8,9,10,11,12,13,14,15,16,17,18,19,20,21,22,23,24,25,26,27,28,29,30},
	{1,2,3,4,5,6,7,8,9,10,11,14,15,16,17,19,21,22,23,24,25,27,28,29,30},
	{1,2,3,5,6,7,8,9,10,11,13,14,15,16,17,18,19,21,22,23,24,25,26,27,28,29},
	{1,2,3,4,5,6,7,8,9,10,11,12,13,14,15,17,18,19,20,21,22,23,25,26,27,28,30},
	{1,2,3,4,5,6,7,8,9,10,11,12,13,14,15,16,17,18,19,20,21,22,23,24,25,26,27,28,29,30},
	{1,2,3,4,5,6,7,8,9,10,11,12,13,14,15,17,18,19,20,21,22,23,25,26,27,28,30},
	{1,2,3,4,5,6,7,8,9,10,11,12,14,15,16,17,18,19,20,21,22,23,24,25,27,28,29,30},
	{1,2,3,4,5,6,7,8,9,10,11,12,14,15,17,18,19,20,21,22,28,30},
	{1,2,3,4,5,7,8,9,10,11,12,13,14,15,17,18,19,20,21,23,25,26,27,28,30},
	{1,2,3,4,5,7,8,9,10,11,12,13,14,15,17,18,19,20,21,23,25,26,27,28,30},
	{1,2,3,4,5,6,7,8,9,10,11,12,13,14,15,16,17,18,19,20,21,22,23,24,25,26,27,28,29,30},
	{1,2,3,4,5,6,7,8,9,10,11,12,13,14,15,17,18,19,20,21,22,23,25,26,27,28,30},
	{1,2,3,4,5,6,7,8,9,10,11,12,14,15,16,17,18,19,20,21,22,23,24,25,27,28,29,30},
	{1,2,3,4,5,6,7,8,9,10,11,12,13,14,15,16,17,18,19,20,21,22,23,24,25,26,27,28,29,30},
	{1,2,3,4,5,6,7,8,9,10,11,12,14,15,16,17,18,19,20,21,22,23,24,25,27,28,29,30},
	{}];

POTENTIAL_ACT = [{2,3,4,5,6,7,8,9,10,11,12,13,14,15,16,17,18,19,20,21,22,23,24,25,26,27,28,29,30,31,32,33,34,35,36,37,38,39,40,41},
	{2,3,4,5,6,7,8,9,10,11,12,13,14,15,16,17,18,19,20,21,22,23,24,25,26,27,28,29,30,31,32,33,34,35,36,37,38,39,40,41},
	{2,3,4,5,6,7,8,9,10,11,12,13,14,15,16,17,18,19,20,21,22,23,24,25,26,27,28,29,30,31,32,33,34,35,36,37,38,39,40,41},
	{2,3,4,5,6,7,8,10,11,12,13,14,15,16,17,18,19,20,21,22,23,24,25,26,27,28,30,31,32,33,34,35,36,37,38,39,40,41},
	{2,3,4,5,6,7,8,9,10,11,12,13,14,15,16,17,18,19,20,21,22,23,24,25,26,27,28,29,30,31,32,33,34,35,36,37,38,39,40,41},
	{2,3,4,5,6,7,9,10,11,12,13,14,16,17,18,19,20,21,22,23,24,25,26,27,28,29,30,31,32,33,34,37,38,39,40,41},
	{2,3,4,5,6,7,8,9,10,11,12,13,14,15,16,17,18,19,20,21,22,23,24,25,26,27,28,29,30,31,32,33,34,35,36,37,38,39,40,41},
	{2,3,4,5,6,7,8,9,10,11,12,13,14,15,16,17,18,19,20,21,22,23,24,25,26,27,28,29,30,31,32,33,34,35,36,37,38,39,40,41},
	{2,3,4,5,8,9,10,11,12,13,14,15,16,17,18,19,20,21,22,23,24,25,27,28,29,30,31,32,33,34,35,36,37,38,39,40,41},
	{2,3,4,5,6,7,8,9,10,11,12,13,14,15,16,17,18,19,20,21,22,23,24,25,26,27,28,29,30,31,32,33,34,35,36,37,38,39,40,41},
	{2,3,4,5,6,7,8,9,10,11,12,13,14,15,16,17,18,19,20,21,22,23,24,25,26,27,28,29,30,31,32,33,34,35,36,37,38,39,40,41},
	{2,3,4,5,8,10,11,12,13,14,15,16,17,18,19,20,22,23,24,25,27,30,31,32,33,34,35,36,37,38,39,40,41},
	{2,4,5,6,7,8,9,10,15,16,17,18,20,22,23,24,25,26,27,29,30,31,32,35,36,37,38,40},
	{2,3,4,5,6,7,8,9,10,11,12,13,14,15,16,17,18,19,20,21,22,23,24,25,26,27,28,29,30,31,32,33,34,35,36,37,38,39,40,41},
	{2,3,4,5,6,7,8,9,10,11,12,13,14,15,16,17,18,19,20,21,22,23,24,25,26,27,28,29,30,31,32,33,34,35,36,37,38,39,40,41},
	{2,3,5,9,10,13,14,16,17,18,19,21,22,24,25,27,28,29,31,33,37,39,40,41},
	{2,3,4,5,6,7,8,9,10,11,12,14,15,16,17,18,20,21,22,23,24,25,26,27,28,29,30,31,32,33,34,35,36,37,38,39,40,41},
	{2,3,4,5,6,7,8,9,10,11,12,13,14,15,16,17,18,19,20,22,23,24,25,26,27,29,30,31,32,33,34,35,36,37,38,39,40,41},
	{2,3,4,5,6,7,8,9,10,11,12,13,14,15,16,17,18,19,20,21,22,23,24,25,26,27,28,29,30,31,32,33,34,35,36,37,38,39,40,41},
	{2,3,4,5,8,10,11,12,13,14,15,16,17,18,19,20,22,23,24,25,27,30,31,32,33,34,35,36,37,38,39,40,41},
	{2,3,4,5,6,7,8,9,10,11,12,13,14,15,16,17,18,19,20,21,22,23,24,25,26,27,28,29,30,31,32,33,34,35,36,37,38,39,40,41},
	{2,3,4,5,6,7,9,10,11,12,13,14,16,17,18,19,20,21,22,23,24,25,26,27,28,29,30,31,32,33,34,37,38,39,40,41},
	{2,3,4,5,6,7,8,9,10,13,14,15,16,17,18,19,20,21,22,23,24,25,26,27,28,29,30,31,32,33,35,36,37,38,39,40,41},
	{2,3,5,9,10,13,14,16,17,18,19,21,22,24,25,27,28,29,31,33,37,39,40,41},
	{2,3,4,5,6,7,8,9,10,13,14,15,16,17,18,19,20,21,22,23,24,25,26,27,28,29,30,31,32,33,35,36,37,38,39,40,41},
	{2,4,5,6,7,8,9,10,15,16,17,18,20,22,23,24,25,26,27,29,30,31,32,35,36,37,38,40},
	{2,3,4,5,6,7,8,9,10,13,14,15,16,17,18,19,20,21,22,23,24,25,26,27,28,29,30,31,32,33,35,36,37,38,39,40,41},
	{2,3,4,5,6,7,8,9,10,11,12,13,14,15,16,17,18,19,20,21,22,23,24,25,26,27,28,29,30,31,32,33,34,35,36,37,38,39,40,41},
	{2,3,5,9,10,13,14,16,17,18,19,21,22,24,25,27,28,29,31,33,37,39,40,41},
	{2,3,4,5,6,7,8,10,11,12,13,14,15,16,17,18,19,20,21,22,23,24,25,26,27,28,30,31,32,33,34,35,36,37,38,39,40,41}];
